p tw 19 42
0 1
0 2
0 3
0 4
0 5
0 6
0 7
0 8
0 9
0 10
0 11
0 12
0 13
0 14
0 15
0 16
0 17
0 18
1 2
1 3
1 4
2 3
2 4
3 4
6 7
6 8
6 9
6 10
7 8
7 9
7 10
8 9
8 10
9 10
11 12
13 14
15 16
15 17
15 18
16 17
16 18
17 18
